JulietBench/Juliet_Based_Patch_Bench/FFmpeg/CWE-189-Numeric-Errors/CVE_2013_0844_f18c873ab5ee3c78d00fdcc2582b39c133faecb4/solveradpcm_decode_frame_Snippet_patch2.smt2
; benchmark generated from python API
(set-info :status unknown)
(declare-fun R () (_ BitVec 32))
(declare-fun rdx () (_ BitVec 64))
(declare-fun rsi () (_ BitVec 64))
(assert
 (let (($x1449 (and (distinct (_ bv0 32) R) true)))
 (let (($x1416 (= (_ bv5 32) R)))
 (let ((?x55 ((_ extract 4 0) rdx)))
 (let ((?x45 (bvmul (_ bv31 5) ?x55)))
 (let ((?x74 (bvadd (_ bv1 5) ?x45)))
 (let ((?x97 (concat (_ bv0 59) ?x74)))
 (let ((?x8 ((_ extract 31 0) rsi)))
 (let ((?x91 ((_ extract 31 31) rsi)))
 (let ((?x72 (concat (concat (concat (concat (concat ?x91 ?x91) ?x91) ?x91) ?x91) ?x91)))
 (let ((?x123 (concat (concat (concat (concat (concat ?x72 ?x91) ?x91) ?x91) ?x91) ?x91)))
 (let ((?x112 (concat (concat (concat (concat (concat ?x123 ?x91) ?x91) ?x91) ?x91) ?x91)))
 (let ((?x100 (concat (concat (concat (concat (concat ?x112 ?x91) ?x91) ?x91) ?x91) ?x91)))
 (let ((?x82 (concat (concat (concat (concat (concat ?x100 ?x91) ?x91) ?x91) ?x91) ?x91)))
 (let ((?x101 (concat (concat (concat (concat (concat ?x82 ?x91) ?x91) ?x91) ?x91) ?x91)))
 (let ((?x93 (concat (concat ?x101 ?x91) ?x8)))
 (let ((?x120 (bvashr ?x93 ?x97)))
 (let ((?x77 ((_ extract 31 0) ?x120)))
 (let (($x107 (bvsge (_ bv0 32) ?x77)))
 (let (($x1433 (and $x107 $x1416)))
 (let (($x156 (= (_ bv0 32) R)))
 (let (($x150 (bvslt (_ bv0 32) ?x77)))
 (let ((?x158 (bvadd (_ bv4294967295 32) ?x77)))
 (let (($x164 (bvsge (_ bv0 32) ?x158)))
 (let (($x1411 (and $x164 $x150 $x156)))
 (let (($x22 (bvslt (_ bv0 32) ?x158)))
 (let ((?x147 (bvadd (_ bv4294967294 32) ?x77)))
 (let (($x769 (bvsge (_ bv0 32) ?x147)))
 (let (($x1338 (and $x769 $x22 $x150 $x156)))
 (let (($x720 (bvslt (_ bv0 32) ?x147)))
 (let ((?x1256 (bvadd (_ bv4294967293 32) ?x77)))
 (let (($x1229 (bvsge (_ bv0 32) ?x1256)))
 (let (($x257 (and $x1229 $x720 $x22 $x150 $x156)))
 (let (($x1442 (or $x257 $x1338 $x1411 $x1433)))
 (let (($x1417 (not $x1442)))
 (let (($x1412 (and $x1417 $x1449)))
 (let (($x1330 (and $x1442 $x156)))
 (let (($x1435 (or $x1330 $x1412)))
 (not $x1435)))))))))))))))))))))))))))))))))))))))
(check-sat)
